50
19500

807 944
949 487
811 941
67 549
19 857
759 353
175 146
269 742
554 884
884 44
209 294
250 749
532 842
573 127
777 237
594 788
955 983
671 321
200 250
386 160
680 767
501 565
689 378
291 232
898 792
216 719
522 529
320 4
995 857
402 206
940 872
860 105
534 853
945 403
948 853
1 779
60 654
526 384
722 441
529 338
717 88
380 874
654 520
95 603
688 884
664 847
494 526
430 805
507 986
164 508
